NAME : XML100_3174_13
DIMENSION : 101
NB_CLUSTERS : 18
CLUSTERING_ALG : KMeans
CLUSTERING_PARAMS : k(17)
CLUSTERS
1 0
2 22 45 89 96
3 3 9 39 50 81
4 16 26 30 33 46 82 86 87
5 13 19 41 60 72 84
6 5 14 25 70 74
7 18 20 78 98
8 17 21 42 53 59 73 95 100
9 1 2 4 44 57 65 75 97
10 12 27 29 35 38 40 43 54 64 66 76 90 99
11 37 71
12 48 51 58 61 63 67 92
13 8 31 69 93
14 36 68 80 83
15 15 23 28 32 49 52 79 85 91 94
16 6 11 24 62 77 88
17 7 10 55
18 34 47 56
EOF